47
1 0 8
2 0 26
2 1 11
3 0 58
3 1 55
3 2 45
4 0 38
4 1 21
4 2 23
4 3 8
5 0 44
5 1 53
5 2 23
5 3 7
5 4 37
6 0 43
6 1 39
6 2 53
6 3 7
6 4 57
6 5 27
7 0 40
7 1 48
7 2 46
7 3 36
7 4 34
7 5 1
7 6 32
8 0 25
8 1 15
8 2 56
8 3 15
8 4 23
8 5 11
8 6 48
8 7 34
9 0 59
9 1 27
9 2 9
9 3 10
9 4 42
9 5 52
9 6 53
9 7 5
9 8 14
10 0 9
10 1 25
10 2 45
10 3 10
10 4 36
10 5 11
10 6 63
10 7 2
10 8 43
10 9 20
11 0 18
11 1 9
11 2 33
11 3 17
11 4 25
11 5 56
11 6 52
11 7 57
11 8 61
11 9 35
11 10 10
12 0 8
12 1 13
12 2 5
12 3 48
12 4 52
12 5 54
12 6 3
12 7 3
12 8 15
12 9 31
12 10 61
12 11 30
13 0 15
13 1 57
13 2 36
13 3 57
13 4 16
13 5 53
13 6 56
13 7 48
13 8 27
13 9 42
13 10 57
13 11 46
13 12 47
14 0 41
14 1 30
14 2 39
14 3 50
14 4 35
14 5 46
14 6 44
14 7 37
14 8 21
14 9 44
14 10 39
14 11 46
14 12 54
14 13 45
15 0 57
15 1 33
15 2 38
15 3 2
15 4 19
15 5 2
15 6 27
15 7 7
15 8 48
15 9 19
15 10 24
15 11 36
15 12 40
15 13 59
15 14 11
16 0 22
16 1 32
16 2 60
16 3 6
16 4 13
16 5 43
16 6 42
16 7 3
16 8 2
16 9 11
16 10 45
16 11 30
16 12 50
16 13 2
16 14 57
16 15 57
17 0 10
17 1 49
17 2 6
17 3 40
17 4 14
17 5 49
17 6 36
17 7 53
17 8 37
17 9 53
17 10 33
17 11 53
17 12 44
17 13 60
17 14 30
17 15 35
17 16 46
18 0 14
18 1 8
18 2 27
18 3 52
18 4 37
18 5 27
18 6 3
18 7 40
18 8 27
18 9 16
18 10 33
18 11 46
18 12 32
18 13 4
18 14 17
18 15 2
18 16 55
18 17 60
19 0 47
19 1 25
19 2 19
19 3 18
19 4 16
19 5 4
19 6 56
19 7 7
19 8 54
19 9 41
19 10 21
19 11 23
19 12 10
19 13 48
19 14 42
19 15 62
19 16 23
19 17 30
19 18 56
20 0 35
20 1 51
20 2 16
20 3 58
20 4 55
20 5 1
20 6 5
20 7 12
20 8 32
20 9 3
20 10 56
20 11 20
20 12 25
20 13 22
20 14 17
20 15 53
20 16 7
20 17 45
20 18 48
20 19 58
21 0 8
21 1 61
21 2 22
21 3 54
21 4 17
21 5 23
21 6 30
21 7 12
21 8 26
21 9 2
21 10 41
21 11 15
21 12 54
21 13 42
21 14 14
21 15 3
21 16 55
21 17 31
21 18 25
21 19 17
21 20 47
22 0 26
22 1 56
22 2 36
22 3 59
22 4 21
22 5 14
22 6 5
22 7 13
22 8 24
22 9 45
22 10 37
22 11 8
22 12 46
22 13 8
22 14 6
22 15 2
22 16 48
22 17 62
22 18 7
22 19 25
22 20 12
22 21 53
23 0 49
23 1 14
23 2 14
23 3 4
23 4 32
23 5 3
23 6 41
23 7 58
23 8 12
23 9 25
23 10 60
23 11 47
23 12 38
23 13 59
23 14 26
23 15 6
23 16 57
23 17 44
23 18 59
23 19 43
23 20 25
23 21 5
23 22 5
24 0 24
24 1 41
24 2 31
24 3 28
24 4 12
24 5 58
24 6 43
24 7 35
24 8 24
24 9 22
24 10 34
24 11 48
24 12 25
24 13 31
24 14 30
24 15 46
24 16 26
24 17 59
24 18 59
24 19 55
24 20 22
24 21 15
24 22 29
24 23 21
25 0 58
25 1 31
25 2 34
25 3 46
25 4 50
25 5 2
25 6 4
25 7 39
25 8 28
25 9 16
25 10 10
25 11 22
25 12 45
25 13 35
25 14 39
25 15 1
25 16 12
25 17 52
25 18 17
25 19 20
25 20 38
25 21 59
25 22 15
25 23 46
25 24 62
26 0 19
26 1 27
26 2 21
26 3 42
26 4 25
26 5 6
26 6 15
26 7 42
26 8 44
26 9 16
26 10 10
26 11 27
26 12 37
26 13 8
26 14 53
26 15 21
26 16 7
26 17 9
26 18 29
26 19 32
26 20 50
26 21 59
26 22 63
26 23 38
26 24 23
26 25 27
27 0 11
27 1 46
27 2 59
27 3 14
27 4 45
27 5 48
27 6 17
27 7 25
27 8 49
27 9 25
27 10 28
27 11 43
27 12 56
27 13 12
27 14 20
27 15 48
27 16 57
27 17 62
27 18 55
27 19 63
27 20 28
27 21 35
27 22 14
27 23 51
27 24 9
27 25 50
27 26 22
28 0 29
28 1 42
28 2 4
28 3 46
28 4 14
28 5 1
28 6 12
28 7 54
28 8 59
28 9 7
28 10 49
28 11 8
28 12 33
28 13 3
28 14 57
28 15 24
28 16 64
28 17 60
28 18 53
28 19 22
28 20 1
28 21 14
28 22 37
28 23 46
28 24 53
28 25 41
28 26 53
28 27 37
29 0 38
29 1 27
29 2 44
29 3 22
29 4 1
29 5 16
29 6 3
29 7 30
29 8 58
29 9 17
29 10 37
29 11 50
29 12 15
29 13 62
29 14 44
29 15 58
29 16 30
29 17 57
29 18 54
29 19 11
29 20 52
29 21 17
29 22 19
29 23 18
29 24 64
29 25 16
29 26 62
29 27 16
29 28 10
30 0 25
30 1 62
30 2 33
30 3 53
30 4 15
30 5 9
30 6 29
30 7 8
30 8 21
30 9 44
30 10 23
30 11 37
30 12 19
30 13 28
30 14 45
30 15 9
30 16 15
30 17 38
30 18 37
30 19 42
30 20 3
30 21 5
30 22 5
30 23 22
30 24 14
30 25 25
30 26 27
30 27 22
30 28 15
30 29 13
31 0 7
31 1 30
31 2 46
31 3 34
31 4 60
31 5 32
31 6 46
31 7 39
31 8 16
31 9 49
31 10 8
31 11 42
31 12 32
31 13 55
31 14 51
31 15 2
31 16 50
31 17 41
31 18 4
31 19 51
31 20 20
31 21 4
31 22 39
31 23 23
31 24 51
31 25 18
31 26 59
31 27 54
31 28 6
31 29 11
31 30 54
32 0 28
32 1 53
32 2 8
32 3 61
32 4 47
32 5 42
32 6 63
32 7 33
32 8 55
32 9 31
32 10 14
32 11 45
32 12 59
32 13 49
32 14 50
32 15 1
32 16 10
32 17 44
32 18 25
32 19 4
32 20 37
32 21 55
32 22 60
32 23 21
32 24 11
32 25 57
32 26 30
32 27 32
32 28 4
32 29 62
32 30 54
32 31 31
33 0 51
33 1 2
33 2 7
33 3 2
33 4 10
33 5 40
33 6 57
33 7 2
33 8 48
33 9 20
33 10 53
33 11 22
33 12 34
33 13 63
33 14 35
33 15 3
33 16 57
33 17 53
33 18 39
33 19 37
33 20 62
33 21 46
33 22 43
33 23 55
33 24 31
33 25 64
33 26 42
33 27 29
33 28 57
33 29 21
33 30 53
33 31 30
33 32 2
34 0 48
34 1 47
34 2 54
34 3 31
34 4 17
34 5 51
34 6 48
34 7 4
34 8 42
34 9 47
34 10 51
34 11 23
34 12 15
34 13 17
34 14 5
34 15 26
34 16 46
34 17 48
34 18 3
34 19 38
34 20 32
34 21 32
34 22 3
34 23 34
34 24 8
34 25 23
34 26 53
34 27 29
34 28 26
34 29 21
34 30 30
34 31 26
34 32 48
34 33 36
35 0 24
35 1 28
35 2 43
35 3 4
35 4 28
35 5 13
35 6 27
35 7 47
35 8 34
35 9 59
35 10 9
35 11 49
35 12 47
35 13 45
35 14 8
35 15 21
35 16 9
35 17 25
35 18 12
35 19 23
35 20 12
35 21 40
35 22 59
35 23 38
35 24 39
35 25 57
35 26 36
35 27 15
35 28 41
35 29 25
35 30 45
35 31 4
35 32 8
35 33 24
35 34 64
36 0 40
36 1 34
36 2 2
36 3 53
36 4 2
36 5 4
36 6 13
36 7 11
36 8 23
36 9 19
36 10 30
36 11 31
36 12 47
36 13 13
36 14 24
36 15 23
36 16 38
36 17 25
36 18 56
36 19 61
36 20 43
36 21 59
36 22 9
36 23 41
36 24 51
36 25 61
36 26 34
36 27 35
36 28 29
36 29 18
36 30 13
36 31 42
36 32 46
36 33 21
36 34 42
36 35 41
37 0 62
37 1 14
37 2 19
37 3 56
37 4 44
37 5 3
37 6 49
37 7 6
37 8 63
37 9 25
37 10 32
37 11 38
37 12 50
37 13 48
37 14 2
37 15 1
37 16 60
37 17 21
37 18 47
37 19 16
37 20 26
37 21 35
37 22 9
37 23 51
37 24 30
37 25 6
37 26 6
37 27 39
37 28 44
37 29 21
37 30 10
37 31 30
37 32 57
37 33 25
37 34 23
37 35 13
37 36 25
38 0 32
38 1 57
38 2 28
38 3 30
38 4 5
38 5 25
38 6 38
38 7 33
38 8 45
38 9 16
38 10 25
38 11 42
38 12 8
38 13 38
38 14 1
38 15 28
38 16 57
38 17 11
38 18 47
38 19 9
38 20 6
38 21 18
38 22 46
38 23 52
38 24 29
38 25 28
38 26 7
38 27 56
38 28 54
38 29 17
38 30 50
38 31 64
38 32 44
38 33 6
38 34 28
38 35 50
38 36 2
38 37 7
39 0 40
39 1 11
39 2 17
39 3 54
39 4 9
39 5 42
39 6 42
39 7 49
39 8 54
39 9 63
39 10 10
39 11 57
39 12 47
39 13 37
39 14 24
39 15 57
39 16 58
39 17 1
39 18 26
39 19 59
39 20 44
39 21 31
39 22 1
39 23 27
39 24 11
39 25 40
39 26 30
39 27 27
39 28 49
39 29 33
39 30 49
39 31 61
39 32 44
39 33 44
39 34 24
39 35 5
39 36 23
39 37 16
39 38 32
40 0 14
40 1 17
40 2 43
40 3 29
40 4 51
40 5 36
40 6 47
40 7 59
40 8 39
40 9 36
40 10 45
40 11 57
40 12 29
40 13 8
40 14 42
40 15 49
40 16 39
40 17 11
40 18 53
40 19 49
40 20 28
40 21 6
40 22 62
40 23 49
40 24 16
40 25 52
40 26 22
40 27 5
40 28 1
40 29 33
40 30 56
40 31 53
40 32 44
40 33 44
40 34 26
40 35 8
40 36 16
40 37 41
40 38 16
40 39 53
41 0 37
41 1 47
41 2 30
41 3 59
41 4 60
41 5 14
41 6 23
41 7 41
41 8 41
41 9 4
41 10 19
41 11 59
41 12 3
41 13 26
41 14 64
41 15 54
41 16 8
41 17 25
41 18 36
41 19 58
41 20 10
41 21 43
41 22 64
41 23 45
41 24 23
41 25 41
41 26 9
41 27 3
41 28 23
41 29 21
41 30 10
41 31 42
41 32 7
41 33 30
41 34 64
41 35 5
41 36 15
41 37 6
41 38 29
41 39 13
41 40 18
42 0 63
42 1 46
42 2 58
42 3 18
42 4 16
42 5 49
42 6 22
42 7 20
42 8 28
42 9 43
42 10 7
42 11 25
42 12 49
42 13 53
42 14 16
42 15 44
42 16 7
42 17 46
42 18 54
42 19 49
42 20 12
42 21 44
42 22 41
42 23 31
42 24 2
42 25 47
42 26 53
42 27 57
42 28 26
42 29 29
42 30 21
42 31 60
42 32 5
42 33 35
42 34 40
42 35 2
42 36 3
42 37 35
42 38 31
42 39 54
42 40 53
42 41 45
43 0 59
43 1 41
43 2 62
43 3 7
43 4 5
43 5 15
43 6 49
43 7 40
43 8 18
43 9 22
43 10 20
43 11 4
43 12 64
43 13 49
43 14 16
43 15 46
43 16 51
43 17 60
43 18 38
43 19 19
43 20 23
43 21 29
43 22 57
43 23 47
43 24 12
43 25 56
43 26 22
43 27 29
43 28 36
43 29 60
43 30 42
43 31 9
43 32 56
43 33 44
43 34 55
43 35 58
43 36 29
43 37 22
43 38 20
43 39 48
43 40 26
43 41 2
43 42 35
44 0 17
44 1 15
44 2 34
44 3 50
44 4 21
44 5 63
44 6 41
44 7 15
44 8 7
44 9 36
44 10 58
44 11 38
44 12 35
44 13 15
44 14 53
44 15 8
44 16 19
44 17 21
44 18 48
44 19 27
44 20 47
44 21 5
44 22 64
44 23 51
44 24 27
44 25 40
44 26 1
44 27 47
44 28 11
44 29 63
44 30 41
44 31 52
44 32 55
44 33 25
44 34 42
44 35 21
44 36 9
44 37 10
44 38 20
44 39 17
44 40 4
44 41 18
44 42 25
44 43 17
45 0 21
45 1 10
45 2 10
45 3 4
45 4 19
45 5 14
45 6 8
45 7 26
45 8 18
45 9 31
45 10 29
45 11 10
45 12 43
45 13 8
45 14 42
45 15 33
45 16 63
45 17 41
45 18 38
45 19 24
45 20 45
45 21 22
45 22 9
45 23 2
45 24 39
45 25 3
45 26 5
45 27 20
45 28 4
45 29 17
45 30 51
45 31 11
45 32 22
45 33 27
45 34 9
45 35 54
45 36 59
45 37 39
45 38 24
45 39 56
45 40 24
45 41 12
45 42 9
45 43 39
45 44 26
46 0 1
46 1 53
46 2 3
46 3 1
46 4 15
46 5 45
46 6 7
46 7 50
46 8 6
46 9 55
46 10 42
46 11 58
46 12 41
46 13 45
46 14 59
46 15 38
46 16 60
46 17 38
46 18 7
46 19 30
46 20 53
46 21 53
46 22 24
46 23 39
46 24 11
46 25 7
46 26 28
46 27 14
46 28 43
46 29 7
46 30 25
46 31 51
46 32 10
46 33 4
46 34 52
46 35 41
46 36 6
46 37 63
46 38 52
46 39 61
46 40 64
46 41 20
46 42 59
46 43 47
46 44 33
46 45 18
